NAME: map8_180
TYPE: TSP
COMMENT: autogenerated using a wonderful map creator
DIMENSION: 210
EDGE_WEIGHT_TYPE: EUC_2D
NODE_COORD_SECTION
1 34.0 126.0
2 35.0 126.0
3 36.0 126.0
4 37.0 126.0
5 38.0 126.0
6 2.0 39.0
7 2.0 38.0
8 88.0 2.0
9 87.0 2.0
10 86.0 2.0
11 85.0 2.0
12 84.0 2.0
13 126.0 75.0
14 126.0 74.0
15 126.0 73.0
16 39.0 126.0
17 40.0 126.0
18 41.0 126.0
19 42.0 126.0
20 43.0 126.0
21 2.0 37.0
22 2.0 36.0
23 2.0 35.0
24 83.0 2.0
25 82.0 2.0
26 81.0 2.0
27 80.0 2.0
28 79.0 2.0
29 126.0 72.0
30 126.0 71.0
31 34.0 127.0
32 35.0 127.0
33 36.0 127.0
34 37.0 127.0
35 38.0 127.0
36 1.0 39.0
37 1.0 38.0
38 88.0 1.0
39 87.0 1.0
40 86.0 1.0
41 85.0 1.0
42 84.0 1.0
43 127.0 75.0
44 127.0 74.0
45 127.0 73.0
46 39.0 127.0
47 40.0 127.0
48 41.0 127.0
49 42.0 127.0
50 43.0 127.0
51 1.0 37.0
52 1.0 36.0
53 1.0 35.0
54 83.0 1.0
55 82.0 1.0
56 81.0 1.0
57 80.0 1.0
58 79.0 1.0
59 127.0 72.0
60 127.0 71.0
61 53.0 5.0
62 19.0 46.0
63 42.0 112.0
64 72.0 91.0
65 115.0 105.0
66 28.0 67.0
67 79.0 51.0
68 107.0 67.0
69 91.0 25.0
70 83.0 85.0
71 78.0 43.0
72 104.0 126.0
73 4.0 103.0
74 41.0 97.0
75 96.0 97.0
76 49.0 25.0
77 67.0 125.0
78 36.0 55.0
79 4.0 66.0
80 82.0 86.0
81 13.0 108.0
82 119.0 25.0
83 42.0 68.0
84 34.0 85.0
85 75.0 83.0
86 18.0 122.0
87 97.0 67.0
88 47.0 48.0
89 106.0 15.0
90 49.0 82.0
91 124.0 115.0
92 46.0 18.0
93 23.0 63.0
94 17.0 108.0
95 71.0 24.0
96 113.0 39.0
97 70.0 68.0
98 20.0 33.0
99 20.0 97.0
100 117.0 48.0
101 46.0 6.0
102 113.0 124.0
103 16.0 127.0
104 126.0 41.0
105 99.0 24.0
106 8.0 52.0
107 119.0 84.0
108 76.0 113.0
109 78.0 31.0
110 14.0 92.0
111 44.0 8.0
112 81.0 57.0
113 19.0 27.0
114 18.0 7.0
115 124.0 46.0
116 63.0 79.0
117 68.0 65.0
118 32.0 20.0
119 28.0 32.0
120 19.0 29.0
121 79.0 80.0
122 124.0 112.0
123 45.0 57.0
124 59.0 56.0
125 107.0 105.0
126 40.0 75.0
127 112.0 31.0
128 111.0 75.0
129 63.0 35.0
130 58.0 69.0
131 80.0 69.0
132 51.0 8.0
133 114.0 46.0
134 67.0 35.0
135 4.0 95.0
136 25.0 8.0
137 42.0 88.0
138 63.0 74.0
139 56.0 68.0
140 63.0 19.0
141 25.0 99.0
142 93.0 117.0
143 121.0 45.0
144 126.0 59.0
145 26.0 36.0
146 102.0 74.0
147 84.0 26.0
148 40.0 99.0
149 122.0 116.0
150 64.0 29.0
151 40.0 108.0
152 25.0 56.0
153 78.0 101.0
154 89.0 46.0
155 56.0 98.0
156 34.0 43.0
157 125.0 33.0
158 1.0 18.0
159 122.0 27.0
160 111.0 61.0
161 28.0 109.0
162 75.0 41.0
163 100.0 61.0
164 46.0 99.0
165 126.0 116.0
166 94.0 127.0
167 67.0 85.0
168 19.0 8.0
169 58.0 91.0
170 104.0 58.0
171 59.0 90.0
172 89.0 39.0
173 62.0 52.0
174 88.0 25.0
175 57.0 74.0
176 40.0 12.0
177 93.0 112.0
178 86.0 54.0
179 109.0 75.0
180 75.0 52.0
181 97.0 82.0
182 81.0 40.0
183 38.0 106.0
184 33.0 73.0
185 119.0 106.0
186 8.0 83.0
187 122.0 123.0
188 125.0 46.0
189 91.0 44.0
190 65.0 25.0
191 117.0 8.0
192 51.0 99.0
193 122.0 31.0
194 75.0 100.0
195 92.0 116.0
196 55.0 5.0
197 92.0 125.0
198 32.0 58.0
199 41.0 6.0
200 47.0 83.0
201 18.0 47.0
202 7.0 47.0
203 36.0 92.0
204 118.0 88.0
205 20.0 50.0
206 51.0 28.0
207 103.0 11.0
208 39.0 72.0
209 84.0 80.0
210 35.0 93.0
211 4.0 60.0
212 44.0 105.0
213 97.0 86.0
214 104.0 46.0
215 102.0 76.0
216 105.0 20.0
217 48.0 50.0
218 101.0 120.0
219 79.0 65.0
220 102.0 30.0
221 56.0 97.0
222 42.0 16.0
223 85.0 78.0
224 23.0 39.0
225 112.0 71.0
226 74.0 96.0
227 102.0 112.0
228 80.0 111.0
229 124.0 8.0
230 17.0 65.0
231 87.0 32.0
232 119.0 30.0
233 35.0 58.0
234 117.0 97.0
235 119.0 94.0
236 13.0 70.0
237 49.0 14.0
238 9.0 97.0
239 106.0 11.0
240 113.0 81.0
START_DEPOT_SECTION
1
2
3
4
5
6
7
8
9
10
11
12
13
14
15
16
17
18
19
20
21
22
23
24
25
26
27
28
29
30
-1
END_DEPOT_SECTION
31
32
33
34
35
36
37
38
39
40
41
42
43
44
45
46
47
48
49
50
51
52
53
54
55
56
57
58
59
60
-1
EOF
